words_hard_train/2906.qaiger
aag 31 16 0 1 15
2
4
8
10
16
20
22
26
28
34
36
40
42
52
54
58
63
6 3 5
12 9 11
14 7 13
18 14 17
24 21 23
30 27 29
32 25 31
38 35 37
44 41 43
46 39 45
48 32 46
50 18 48
56 53 55
60 57 59
62 50 60
i0 2 y2[4]
i1 1 x2[4]
i2 2 y2[7]
i3 1 x2[7]
i4 2 y2[1]
i5 2 y2[2]
i6 1 x2[2]
i7 2 y2[6]
i8 1 x2[6]
i9 2 y2[5]
i10 1 x2[5]
i11 2 y2[3]
i12 1 x2[3]
i13 2 y2[0]
i14 1 x2[0]
i15 1 x2[1]
o0 bool[0]
c
simplified
  !=
    subtract
      invert
        1
      1
    or
      1 x2
      2 y2
