words_hard_train/2906.qaiger.qdimacs
p cnf 31 46
a 2 5 11 14 18 21 27 29 0
e 1 3 4 6 7 8 9 10 12 13 15 16 17 19 20 22 23 24 25 26 28 30 31 0
1 2 3 0
-1 -3 0
-2 -3 0
4 5 6 0
-4 -6 0
-5 -6 0
3 6 7 0
-3 -7 0
-6 -7 0
-7 8 9 0
7 -9 0
-8 -9 0
10 11 12 0
-10 -12 0
-11 -12 0
13 14 15 0
-13 -15 0
-14 -15 0
12 15 16 0
-12 -16 0
-15 -16 0
17 18 19 0
-17 -19 0
-18 -19 0
20 21 22 0
-20 -22 0
-21 -22 0
19 22 23 0
-19 -23 0
-22 -23 0
-16 -23 24 0
16 -24 0
23 -24 0
-9 -24 25 0
9 -25 0
24 -25 0
26 27 28 0
-26 -28 0
-27 -28 0
28 29 30 0
-28 -30 0
-29 -30 0
-25 -30 31 0
25 -31 0
30 -31 0
-31 0
